
  22    4
  10   10   10   10

   0   0   0   0   0   5 2 3 4 8 15 
   7  10  10  10  10   7 21 20 13 12 7 6 5 
   4  10  10  10  10   6 20 19 14 12 10 9 
   8  10  10  10  10   5 19 12 11 10 7 
   4  10  10  10  10   4 19 11 10 9 
   4  10  10  10  10   3 11 10 9 
   8  10  10  10  10   2 17 9 
   4  10  10  10  10   2 19 16 
   5  10  10  10  10   1 18 
   6  10  10  10  10   1 17 
   3  10  10  10  10   1 16 
   4  10  10  10  10   1 16 
   2  10  10  10  10   1 19 
   1  10  10  10  10   1 17 
   5  10  10  10  10   1 16 
   7  10  10  10  10   1 22
   4  10  10  10  10   1 22
   8  10  10  10  10   1 22
   6  10  10  10  10   1 22
   1  10  10  10  10   1 22
   2  10  10  10  10   1 22
   0   0   0   0   0   0 
